NAME : C14
TYPE : CVRP
DIMENSION : 101
VEHICLES : 11
CAPACITY : 200
DISTANCE : 1040.00000
SERVICE_TIME : 90
EDGE_WEIGHT_TYPE : EXACT_2D
NODE_COORD_SECTION
1 45.00000 68.00000
2 45.00000 70.00000
3 42.00000 66.00000
4 42.00000 68.00000
5 42.00000 65.00000
6 40.00000 69.00000
7 40.00000 66.00000
8 38.00000 68.00000
9 38.00000 70.00000
10 35.00000 66.00000
11 35.00000 69.00000
12 25.00000 85.00000
13 22.00000 75.00000
14 22.00000 85.00000
15 20.00000 80.00000
16 20.00000 85.00000
17 18.00000 75.00000
18 15.00000 75.00000
19 15.00000 80.00000
20 30.00000 50.00000
21 30.00000 52.00000
22 28.00000 52.00000
23 28.00000 55.00000
24 25.00000 50.00000
25 25.00000 52.00000
26 25.00000 55.00000
27 23.00000 52.00000
28 23.00000 55.00000
29 20.00000 50.00000
30 20.00000 55.00000
31 10.00000 35.00000
32 10.00000 40.00000
33 8.00000 40.00000
34 8.00000 45.00000
35 5.00000 35.00000
36 5.00000 45.00000
37 2.00000 40.00000
38 0.00000 40.00000
39 0.00000 45.00000
40 35.00000 30.00000
41 35.00000 32.00000
42 33.00000 32.00000
43 33.00000 35.00000
44 32.00000 30.00000
45 30.00000 30.00000
46 30.00000 32.00000
47 30.00000 35.00000
48 28.00000 30.00000
49 28.00000 35.00000
50 26.00000 32.00000
51 25.00000 30.00000
52 25.00000 35.00000
53 44.00000 5.00000
54 42.00000 10.00000
55 42.00000 15.00000
56 40.00000 5.00000
57 40.00000 15.00000
58 38.00000 5.00000
59 38.00000 15.00000
60 35.00000 5.00000
61 50.00000 30.00000
62 50.00000 35.00000
63 50.00000 40.00000
64 48.00000 30.00000
65 48.00000 40.00000
66 47.00000 35.00000
67 47.00000 40.00000
68 45.00000 30.00000
69 45.00000 35.00000
70 95.00000 30.00000
71 95.00000 35.00000
72 53.00000 30.00000
73 92.00000 30.00000
74 53.00000 35.00000
75 45.00000 65.00000
76 90.00000 35.00000
77 88.00000 30.00000
78 88.00000 35.00000
79 87.00000 30.00000
80 85.00000 25.00000
81 85.00000 35.00000
82 75.00000 55.00000
83 72.00000 55.00000
84 70.00000 58.00000
85 68.00000 60.00000
86 66.00000 55.00000
87 65.00000 55.00000
88 65.00000 60.00000
89 63.00000 58.00000
90 60.00000 55.00000
91 60.00000 60.00000
92 67.00000 85.00000
93 65.00000 85.00000
94 65.00000 82.00000
95 62.00000 80.00000
96 60.00000 80.00000
97 60.00000 85.00000
98 58.00000 75.00000
99 55.00000 80.00000
100 55.00000 85.00000
101 40.00000 50.00000
DEMAND_SECTION
1 10
2 30
3 10
4 10
5 10
6 20
7 20
8 20
9 10
10 10
11 10
12 20
13 30
14 10
15 40
16 40
17 20
18 20
19 10
20 10
21 20
22 20
23 10
24 10
25 40
26 10
27 10
28 20
29 10
30 10
31 20
32 30
33 40
34 20
35 10
36 10
37 20
38 30
39 20
40 10
41 10
42 20
43 10
44 10
45 10
46 30
47 10
48 10
49 10
50 10
51 10
52 10
53 20
54 40
55 10
56 30
57 40
58 30
59 10
60 20
61 10
62 20
63 50
64 10
65 10
66 10
67 10
68 10
69 10
70 30
71 20
72 10
73 10
74 50
75 20
76 10
77 10
78 20
79 10
80 10
81 30
82 20
83 10
84 20
85 30
86 10
87 20
88 30
89 10
90 10
91 10
92 20
93 40
94 10
95 30
96 10
97 30
98 20
99 10
100 20
101 0
DEPOT_SECTION
101
-1
EOF
